cost: 735.79
Route 1:           0    3   20   15   32   39   26    2   37   34   12   41    8   24    0
Route 2:           0    6    1   18   25   10   27   50   23   14    5   30   45   43   22   47    0
Route 3:           0   19   17   11    9   42   35   31   21   16    0
Route 4:           0   46    4   36    7   28   49   13   44   29   38   48   40   33    0
